24 24
18
3 3   3 0 
4 3   11 3 
3 5   5 16
6 3   0 13
7 3   17 21
8 3   3 3 
9 3   15 7 
3 10  0 0 
12 3   5 21
14 3   10 13
18 3   6 0 
24 3   0 10
4 3   6 13
4 4   15 3 
5 4   19 3 
12 4   3 6 
5 8   0 16
16 5   8 16
